22	3

7	10	10	

0	0	0	0	3	2	3	4	
5	3	5	2	2	5	6	
3	5	4	3	2	5	6	
1	5	2	2	2	7	8	
5	4	1	4	2	11	12	
6	5	5	4	2	9	10	
3	3	5	2	2	9	12	
5	2	4	4	2	10	11	
2	3	2	2	2	13	16	
9	3	2	4	2	13	14	
1	3	3	2	1	15	
1	4	1	4	1	13	
1	1	4	4	2	17	19	
1	2	2	2	1	17	
2	5	5	4	1	18	
4	1	5	4	1	17	
2	4	5	4	1	20	
3	3	2	3	1	20	
7	5	3	3	2	20	21	
3	2	4	6	1	22	
2	1	6	2	1	22	
0	0	0	0	0	
